48
1      114514
Ru    1.58222  1.06585  -2.07168
Ru    1.58222  3.80615  -2.07168
Ru    1.58222  6.54644  -2.07168
Ru    1.58222  9.28674  -2.07168
Ru    3.95538  -0.30430  -2.07168
Ru    3.95538  2.43600  -2.07168
Ru    3.95538  5.17630  -2.07168
Ru    3.95538  7.91659  -2.07168
Ru    6.32855  -1.67444  -2.07168
Ru    6.32855  1.06585  -2.07168
Ru    6.32855  3.80615  -2.07168
Ru    6.32855  6.54644  -2.07168
Ru    8.70172  -3.04459  -2.07168
Ru    8.70172  -0.30430  -2.07168
Ru    8.70172  2.43600  -2.07168
Ru    8.70172  5.17630  -2.07168
Ru    0.79117  -0.30431  0.00000
Ru    0.79117  2.43599  0.00000
Ru    0.79117  5.17628  0.00000
Ru    0.79117  7.91658  0.00000
Ru    3.16434  -1.67446  0.00000
Ru    3.16434  1.06584  0.00000
Ru    3.16434  3.80613  0.00000
Ru    3.16434  6.54643  0.00000
Ru    5.53750  -3.04461  0.00000
Ru    5.53750  -0.30431  0.00000
Ru    5.53750  2.43599  0.00000
Ru    5.53750  5.17628  0.00000
Ru    7.91067  -4.41475  0.00000
Ru    7.91067  -1.67446  0.00000
Ru    7.91067  1.06584  0.00000
Ru    7.91067  3.80613  0.00000
C    0.89572  2.72349  2.36250
O    0.89572  2.72349  3.46596
C    1.11152  8.36292  2.38130
O    1.11152  8.36292  3.48130
C    3.75355  4.12354  2.46524
O    3.75355  4.12354  3.56667
C    0.88880  0.39998  2.44230
O    0.88880  0.39998  3.54446
C    7.92162  -1.65380  2.46205
O    7.92162  -1.65380  3.56541
C    8.65194  4.01738  2.38136
O    8.65194  4.01738  3.48301
C    5.89371  5.34169  2.42964
O    5.89371  5.34169  3.53173
C    8.74293  -3.99382  2.45705
O    8.74293  -3.99382  3.55928
